NAME examples

ROWS
      N obj
      G c1
      G c2
      G c3
      G c4
      G c5
      G c6
      G c7
      G c8
      G c9
      G c10
      G c11
      G c12
      G c13
      G c14
      G c15
      G c16
      G c17
      G c18
      G c19
      G c20
      G c21
      G c22
      G c23
      G c24
      G c25
      G c26
      G c27
      G c28
      L c29

COLUMNS
      x1  obj   -0.38
      x1 c11 1
      x1 c21 1
      x1 c23 1
      x1 c29 1
      x2  obj   -0.41
      x2 c6 1
      x2 c8 1
      x2 c10 1
      x2 c14 1
      x2 c26 1
      x2 c29 1
      x3  obj   -0.13
      x3 c20 1
      x3 c29 1
      x4  obj   -1.08
      x4 c1 1
      x4 c5 1
      x4 c6 1
      x4 c8 1
      x4 c9 1
      x4 c10 1
      x4 c14 1
      x4 c16 1
      x4 c18 1
      x4 c26 1
      x4 c27 1
      x4 c29 1
      x5  obj   -1.11
      x5 c2 1
      x5 c7 1
      x5 c13 1
      x5 c17 1
      x5 c19 1
      x5 c22 1
      x5 c25 1
      x5 c29 1
      x6  obj   -0.08
      x6 c6 1
      x6 c29 1
      x7  obj   -0.33
      x7 c3 1
      x7 c29 1
      x8  obj   -0.69
      x8 c1 1
      x8 c6 1
      x8 c8 1
      x8 c9 1
      x8 c10 1
      x8 c14 1
      x8 c26 1
      x8 c27 1
      x8 c29 1
      x9  obj   -0.27
      x9 c20 1
      x9 c24 1
      x9 c29 1
      x10  obj   -0.13
      x10 c13 1
      x10 c29 1
      x11  obj   -1.11
      x11 c2 1
      x11 c7 1
      x11 c13 1
      x11 c17 1
      x11 c19 1
      x11 c22 1
      x11 c25 1
      x11 c29 1
      x12  obj   -1.5
      x12 c3 1
      x12 c4 1
      x12 c15 1
      x12 c28 1
      x12 c29 1
      x13  obj   -0.24
      x13 c11 1
      x13 c23 1
      x13 c29 1
      x14  obj   -0.33
      x14 c4 1
      x14 c29 1
      x15  obj   -1.11
      x15 c2 1
      x15 c7 1
      x15 c13 1
      x15 c17 1
      x15 c19 1
      x15 c22 1
      x15 c25 1
      x15 c29 1
      x16  obj   -1.5
      x16 c3 1
      x16 c4 1
      x16 c15 1
      x16 c28 1
      x16 c29 1
      x17  obj   -0.14
      x17 c17 1
      x17 c29 1
      x18  obj   -0.08
      x18 c27 1
      x18 c29 1
      x19  obj   -0.33
      x19 c28 1
      x19 c29 1
      x20  obj   -0.86
      x20 c2 1
      x20 c13 1
      x20 c17 1
      x20 c19 1
      x20 c22 1
      x20 c25 1
      x20 c29 1
      x21  obj   -1.89
      x21 c1 1
      x21 c5 1
      x21 c6 1
      x21 c8 1
      x21 c9 1
      x21 c10 1
      x21 c11 1
      x21 c12 1
      x21 c14 1
      x21 c16 1
      x21 c18 1
      x21 c20 1
      x21 c21 1
      x21 c23 1
      x21 c24 1
      x21 c26 1
      x21 c27 1
      x21 c29 1
      x22  obj   -1.89
      x22 c1 1
      x22 c5 1
      x22 c6 1
      x22 c8 1
      x22 c9 1
      x22 c10 1
      x22 c11 1
      x22 c12 1
      x22 c14 1
      x22 c16 1
      x22 c18 1
      x22 c20 1
      x22 c21 1
      x22 c23 1
      x22 c24 1
      x22 c26 1
      x22 c27 1
      x22 c29 1
      x23  obj   -0.81
      x23 c1 1
      x23 c6 1
      x23 c8 1
      x23 c9 1
      x23 c10 1
      x23 c14 1
      x23 c16 1
      x23 c26 1
      x23 c27 1
      x23 c29 1
      x24  obj   -0.27
      x24 c13 1
      x24 c22 1
      x24 c29 1
      x25  obj   -1.89
      x25 c1 1
      x25 c5 1
      x25 c6 1
      x25 c8 1
      x25 c9 1
      x25 c10 1
      x25 c11 1
      x25 c12 1
      x25 c14 1
      x25 c16 1
      x25 c18 1
      x25 c20 1
      x25 c21 1
      x25 c23 1
      x25 c24 1
      x25 c26 1
      x25 c27 1
      x25 c29 1
      x26  obj   -0.24
      x26 c8 1
      x26 c10 1
      x26 c14 1
      x26 c29 1
      x27  obj   -0.14
      x27 c19 1
      x27 c29 1
      x28  obj   -0.08
      x28 c8 1
      x28 c29 1
      x29  obj   -0.17
      x29 c9 1
      x29 c27 1
      x29 c29 1
      x30  obj   -0.14
      x30 c2 1
      x30 c29 1
      x31  obj   -0.86
      x31 c2 1
      x31 c13 1
      x31 c17 1
      x31 c19 1
      x31 c22 1
      x31 c25 1
      x31 c29 1
      x32  obj   -1.89
      x32 c1 1
      x32 c5 1
      x32 c6 1
      x32 c8 1
      x32 c9 1
      x32 c10 1
      x32 c11 1
      x32 c12 1
      x32 c14 1
      x32 c16 1
      x32 c18 1
      x32 c20 1
      x32 c21 1
      x32 c23 1
      x32 c24 1
      x32 c26 1
      x32 c27 1
      x32 c29 1
      x33  obj   -1.89
      x33 c1 1
      x33 c5 1
      x33 c6 1
      x33 c8 1
      x33 c9 1
      x33 c10 1
      x33 c11 1
      x33 c12 1
      x33 c14 1
      x33 c16 1
      x33 c18 1
      x33 c20 1
      x33 c21 1
      x33 c23 1
      x33 c24 1
      x33 c26 1
      x33 c27 1
      x33 c29 1
      x34  obj   -0.08
      x34 c14 1
      x34 c29 1
      x35  obj   -1.11
      x35 c2 1
      x35 c7 1
      x35 c13 1
      x35 c17 1
      x35 c19 1
      x35 c22 1
      x35 c25 1
      x35 c29 1
      x36  obj   -1.89
      x36 c1 1
      x36 c5 1
      x36 c6 1
      x36 c8 1
      x36 c9 1
      x36 c10 1
      x36 c11 1
      x36 c12 1
      x36 c14 1
      x36 c16 1
      x36 c18 1
      x36 c20 1
      x36 c21 1
      x36 c23 1
      x36 c24 1
      x36 c26 1
      x36 c27 1
      x36 c29 1
      x37  obj   -0.11
      x37 c11 1
      x37 c29 1
      x38  obj   -0.81
      x38 c1 1
      x38 c6 1
      x38 c8 1
      x38 c9 1
      x38 c10 1
      x38 c14 1
      x38 c18 1
      x38 c26 1
      x38 c27 1
      x38 c29 1

RHS
      rhs c1  1
      rhs c2  1
      rhs c3  1
      rhs c4  1
      rhs c5  1
      rhs c6  1
      rhs c7  1
      rhs c8  1
      rhs c9  1
      rhs c10  1
      rhs c11  1
      rhs c12  1
      rhs c13  1
      rhs c14  1
      rhs c15  1
      rhs c16  1
      rhs c17  1
      rhs c18  1
      rhs c19  1
      rhs c20  1
      rhs c21  1
      rhs c22  1
      rhs c23  1
      rhs c24  1
      rhs c25  1
      rhs c26  1
      rhs c27  1
      rhs c28  1
      rhs c29  3.0

BOUNDS
      LI bnd x1 0
      LI bnd x2 0
      LI bnd x3 0
      LI bnd x4 0
      LI bnd x5 0
      LI bnd x6 0
      LI bnd x7 0
      LI bnd x8 0
      LI bnd x9 0
      LI bnd x10 0
      LI bnd x11 0
      LI bnd x12 0
      LI bnd x13 0
      LI bnd x14 0
      LI bnd x15 0
      LI bnd x16 0
      LI bnd x17 0
      LI bnd x18 0
      LI bnd x19 0
      LI bnd x20 0
      LI bnd x21 0
      LI bnd x22 0
      LI bnd x23 0
      LI bnd x24 0
      LI bnd x25 0
      LI bnd x26 0
      LI bnd x27 0
      LI bnd x28 0
      LI bnd x29 0
      LI bnd x30 0
      LI bnd x31 0
      LI bnd x32 0
      LI bnd x33 0
      LI bnd x34 0
      LI bnd x35 0
      LI bnd x36 0
      LI bnd x37 0
      LI bnd x38 0
      UI bnd x1 1
      UI bnd x2 1
      UI bnd x3 1
      UI bnd x4 1
      UI bnd x5 1
      UI bnd x6 1
      UI bnd x7 1
      UI bnd x8 1
      UI bnd x9 1
      UI bnd x10 1
      UI bnd x11 1
      UI bnd x12 1
      UI bnd x13 1
      UI bnd x14 1
      UI bnd x15 1
      UI bnd x16 1
      UI bnd x17 1
      UI bnd x18 1
      UI bnd x19 1
      UI bnd x20 1
      UI bnd x21 1
      UI bnd x22 1
      UI bnd x23 1
      UI bnd x24 1
      UI bnd x25 1
      UI bnd x26 1
      UI bnd x27 1
      UI bnd x28 1
      UI bnd x29 1
      UI bnd x30 1
      UI bnd x31 1
      UI bnd x32 1
      UI bnd x33 1
      UI bnd x34 1
      UI bnd x35 1
      UI bnd x36 1
      UI bnd x37 1
      UI bnd x38 1

ENDATA